nbGenes = 10;
preference = [[0 20 57 44 21 56 97 74 17 9 ]
[80 0 49 50 5 18 90 87 62 91 ]
[43 51 0 43 50 62 23 39 61 57 ]
[56 50 57 0 48 37 97 93 30 15 ]
[79 95 50 52 0 42 57 15 48 87 ]
[44 82 38 63 58 0 63 21 13 16 ]
[3 10 77 3 43 37 0 10 12 18 ]
[26 13 61 7 85 79 90 0 54 64 ]
[83 38 39 70 52 87 88 46 0 61 ]
[91 9 43 85 13 84 82 36 39 0 ]
];
